
units real
atom_style full

dimension 3
boundary p p p

bond_style hybrid harmonic
angle_style hybrid harmonic
dihedral_style hybrid fourier
improper_style cvff
special_bonds lj 0.0 0.0 0.5 coul 0.0 0.0 0.8333333333 
pair_style lj/cut/coul/cut 12.0 12.0
pair_modify mix arithmetic tail yes

read_data acetic_acid.data

compute DIPOLE all dipole
thermo_style custom step time ebond eangle edihed eimp epair evdwl ecoul elong etail pe c_DIPOLE[0] c_DIPOLE[1] c_DIPOLE[2]
timestep 1.0
fix NVT all nvt temp 300.0 300.0 100.0
thermo 1000
run 1000000

